c instance by G2
c solution = 1110110
c Known solution cost is 416 
p cnf 7 30
w 50 69 44 68 77 40 68
-6 -4 -2 0
-5 -7 -4 0
1 4 -6 0
-2 -4 -7 0
1 2 -7 0
7 5 1 0
7 3 -4 0
-7 1 5 0
6 -5 2 0
7 -3 5 0
-4 -1 -5 0
1 5 -3 0
7 4 6 0
5 -1 3 0
2 4 6 0
1 -5 2 0
-2 -7 4 0
-3 -6 1 0
-6 5 -1 0
3 -6 7 0
-2 7 6 0
-7 -1 -2 0
7 1 5 0
7 -5 -4 0
5 -6 7 0
-5 2 -7 0
-6 -2 1 0
4 -1 2 0
1 -6 4 0
2 -6 -1 0
